100
32
5
19
14
9
12
30
10
2
5
23
5
26
17
21
9
1
12
30
11
8
30
27
24
14
7
24
18
6
18
4
8
1
13
6
3
13
4
19
1
20
23
17
21
22
30
15
1
3
18
25
1
32
14
31
7
5
9
15
8
15
3
19
12
21
4
19
24
20
28
11
31
28
8
2
15
20
7
31
28
16
24
9
3
17
8
13
6
25
19
15
4
18
32
10
28
18
15
16
28
12